Grasp exp. instance_n_15_m_5_id_1.lp tipoLifted 0 szPool 5 nIteration 20 alpha 0.8 
Academic license - for non-commercial use only
Read LP format model from file ../input/instancesGenerated/instance_n_15_m_5_id_1.lp
Reading time = 0.00 seconds
: 5 rows, 15 columns, 75 nonzeros
Optimize a model with 5 rows, 15 columns and 75 nonzeros
Variable types: 0 continuous, 15 integer (15 binary)
Coefficient statistics:
  Matrix range     [1e+00, 1e+01]
  Objective range  [1e+00, 1e+01]
  Bounds range     [1e+00, 1e+00]
  RHS range        [4e+01, 5e+01]
Found heuristic solution: objective 26.0000000

Explored 0 nodes (0 simplex iterations) in 0.00 seconds
Thread count was 1 (of 8 available processors)

Solution count 1: 26 
No other solutions better than 0

Solution limit reached
Best objective 2.600000000000e+01, best bound -, gap -
C_1:	 7.00 x_1  = 0.000000 + 6.00 x_2  = 1.000000 + 1.00 x_3  = 1.000000 + 2.00 x_4  = 0.500000 + 1.00 x_5  = 0.000000 + 3.00 x_6  = 0.000000 + 4.00 x_7  = 1.000000 + 6.00 x_8  = 0.000000 + 8.00 x_9  = 1.000000 + 10.00 x_10  = 1.000000 + 2.00 x_11  = 1.000000 + 5.00 x_12  = 0.000000 + 10.00 x_13  = 0.000000 + 2.00 x_14  = 0.000000 + 4.00 x_15  = 0.000000 <= 35.00
C_2:	 7.00 x_1  = 0.000000 + 4.00 x_2  = 1.000000 + 10.00 x_3  = 1.000000 + 8.00 x_4  = 0.500000 + 6.00 x_5  = 0.000000 + 3.00 x_6  = 0.000000 + 3.00 x_7  = 1.000000 + 7.00 x_8  = 0.000000 + 6.00 x_9  = 1.000000 + 2.00 x_10  = 1.000000 + 3.00 x_11  = 1.000000 + 3.00 x_12  = 0.000000 + 4.00 x_13  = 0.000000 + 7.00 x_14  = 0.000000 + 6.00 x_15  = 0.000000 <= 39.00
C_3:	 8.00 x_1  = 0.000000 + 3.00 x_2  = 1.000000 + 1.00 x_3  = 1.000000 + 1.00 x_4  = 0.500000 + 6.00 x_5  = 0.000000 + 3.00 x_6  = 0.000000 + 5.00 x_7  = 1.000000 + 10.00 x_8  = 0.000000 + 9.00 x_9  = 1.000000 + 3.00 x_10  = 1.000000 + 9.00 x_11  = 1.000000 + 2.00 x_12  = 0.000000 + 9.00 x_13  = 0.000000 + 10.00 x_14  = 0.000000 + 5.00 x_15  = 0.000000 <= 42.00
C_4:	 4.00 x_1  = 0.000000 + 6.00 x_2  = 1.000000 + 9.00 x_3  = 1.000000 + 4.00 x_4  = 0.500000 + 6.00 x_5  = 0.000000 + 4.00 x_6  = 0.000000 + 8.00 x_7  = 1.000000 + 8.00 x_8  = 0.000000 + 10.00 x_9  = 1.000000 + 3.00 x_10  = 1.000000 + 9.00 x_11  = 1.000000 + 4.00 x_12  = 0.000000 + 6.00 x_13  = 0.000000 + 4.00 x_14  = 0.000000 + 10.00 x_15  = 0.000000 <= 47.00
C_5:	 1.00 x_1  = 0.000000 + 2.00 x_2  = 1.000000 + 5.00 x_3  = 1.000000 + 3.00 x_4  = 0.500000 + 4.00 x_5  = 0.000000 + 10.00 x_6  = 0.000000 + 6.00 x_7  = 1.000000 + 8.00 x_8  = 0.000000 + 9.00 x_9  = 1.000000 + 6.00 x_10  = 1.000000 + 2.00 x_11  = 1.000000 + 9.00 x_12  = 0.000000 + 9.00 x_13  = 0.000000 + 2.00 x_14  = 0.000000 + 9.00 x_15  = 0.000000 <= 42.00
Solution initial: 48.500000 
Number Constraints Used in Cover:5
GRASP Method!
Number cuts repeat: 0
value: 48.500000
Number Constraints Used in Cover:12
GRASP Method!
Number cuts repeat: 0
value: 48.500000
Number Constraints Used in Cover:19
GRASP Method!
Number cuts repeat: 0
value: 48.500000
Number Constraints Used in Cover:25
GRASP Method!
Number cuts repeat: 0
value: 48.500000
Number Constraints Used in Cover:32
GRASP Method!
Number cuts repeat: 0
value: 48.500000
Number Constraints Used in Cover:44
GRASP Method!
Number cuts repeat: 0
value: 48.500000
Number Constraints Used in Cover:58
GRASP Method!
Number cuts repeat: 0
value: 48.333333
Number Constraints Used in Cover:77
GRASP Method!
Number cuts repeat: 0
value: 48.333333
Number Constraints Used in Cover:92
GRASP Method!
Number cuts repeat: 0
value: 48.333333
Number Constraints Used in Cover:111
GRASP Method!
Number cuts repeat: 0
value: 48.333333
Number Constraints Used in Cover:135
GRASP Method!
Number cuts repeat: 0
value: 48.333333
Number Constraints Used in Cover:151
GRASP Method!
Number cuts repeat: 0
value: 48.333333
Number Constraints Used in Cover:167
GRASP Method!
Number cuts repeat: 0
value: 48.333333
Number Constraints Used in Cover:187
GRASP Method!
Number cuts repeat: 0
value: 48.333333
Number Constraints Used in Cover:202
GRASP Method!
Number cuts repeat: 0
value: 48.333333
Number Constraints Used in Cover:216
GRASP Method!
Number cuts repeat: 0
value: 48.333333
Number Constraints Used in Cover:231
GRASP Method!
Number cuts repeat: 0
value: 48.333333
Number Constraints Used in Cover:243
GRASP Method!
Number cuts repeat: 0
value: 48.333333
Number Constraints Used in Cover:254
GRASP Method!
Number cuts repeat: 0
value: 48.333333
Number Constraints Used in Cover:259
GRASP Method!
Number cuts repeat: 0
value: 48.333333
Number Constraints Used in Cover:270
GRASP Method!
Number cuts repeat: 0
value: 48.333333
Number Constraints Used in Cover:280
GRASP Method!
Number cuts repeat: 0
value: 48.333333
Number Constraints Used in Cover:286
GRASP Method!
Number cuts repeat: 0
value: 48.333333
Number Constraints Used in Cover:292
GRASP Method!
Number cuts repeat: 0
value: 48.333333
Number Constraints Used in Cover:300
GRASP Method!
Number cuts repeat: 0
value: 48.333333
Number Constraints Used in Cover:308
GRASP Method!
Number cuts repeat: 0
value: 48.333333
Number Constraints Used in Cover:316
GRASP Method!
Number cuts repeat: 0
value: 48.333333
Number Constraints Used in Cover:322
GRASP Method!
Number cuts repeat: 0
value: 48.333333
Number Constraints Used in Cover:329
GRASP Method!
Number cuts repeat: 0
value: 48.333333
Number Constraints Used in Cover:336
GRASP Method!
Number cuts repeat: 0
value: 48.333333
Number Constraints Used in Cover:341
GRASP Method!
Number cuts repeat: 0
value: 48.333333
Number Constraints Used in Cover:350
GRASP Method!
Number cuts repeat: 0
value: 48.333333
Number Constraints Used in Cover:356
GRASP Method!
Number cuts repeat: 0
value: 48.333333
Number Constraints Used in Cover:361
GRASP Method!
Number cuts repeat: 0
value: 48.333333
Number Constraints Used in Cover:369
GRASP Method!
Number cuts repeat: 0
value: 48.333333
Number Constraints Used in Cover:381
GRASP Method!
Number cuts repeat: 0
value: 48.333333
Number Constraints Used in Cover:390
GRASP Method!
Number cuts repeat: 0
value: 48.333333
Number Constraints Used in Cover:399
GRASP Method!
Number cuts repeat: 0
value: 48.333333
Number Constraints Used in Cover:414
GRASP Method!
Number cuts repeat: 0
value: 48.333333
Number Constraints Used in Cover:428
GRASP Method!
Number cuts repeat: 0
value: 48.333333
Number Constraints Used in Cover:439
GRASP Method!
Number cuts repeat: 0
value: 48.333333
Number Constraints Used in Cover:452
GRASP Method!
Number cuts repeat: 0
value: 48.333333
Number Constraints Used in Cover:466
GRASP Method!
Number cuts repeat: 0
value: 48.333333
Number Constraints Used in Cover:479
GRASP Method!
Number cuts repeat: 0
value: 48.333333
Number Constraints Used in Cover:489
GRASP Method!
Number cuts repeat: 0
value: 48.333333
Number Constraints Used in Cover:494
GRASP Method!
Number cuts repeat: 0
value: 48.333333
Number Constraints Used in Cover:508
GRASP Method!
Number cuts repeat: 0
value: 48.333333
Number Constraints Used in Cover:516
GRASP Method!
Number cuts repeat: 0
value: 48.333333
Number Constraints Used in Cover:529
GRASP Method!
Number cuts repeat: 0
value: 48.333333
Number Constraints Used in Cover:550
GRASP Method!
Number cuts repeat: 0
value: 48.333333
Number Constraints Used in Cover:559
GRASP Method!
Number cuts repeat: 0
value: 48.333333
Number Constraints Used in Cover:567
GRASP Method!
Number cuts repeat: 0
value: 48.333333
Number Constraints Used in Cover:573
GRASP Method!
Number cuts repeat: 0
value: 48.333333
Number Constraints Used in Cover:575
GRASP Method!
Number cuts repeat: 0
value: 48.333333
Number Constraints Used in Cover:584
GRASP Method!
Number cuts repeat: 0
value: 48.333333
Number Constraints Used in Cover:595
GRASP Method!
Number cuts repeat: 0
value: 48.333333
Number Constraints Used in Cover:600
GRASP Method!
Number cuts repeat: 0
value: 48.333333
Number Constraints Used in Cover:612
GRASP Method!
Number cuts repeat: 0
value: 48.333333
Number Constraints Used in Cover:625
GRASP Method!
Number cuts repeat: 0
value: 48.333333
Number Constraints Used in Cover:640
GRASP Method!
Number cuts repeat: 0
value: 48.333333
Number Constraints Used in Cover:649
GRASP Method!
Number cuts repeat: 0
value: 48.333333
Number Constraints Used in Cover:663
GRASP Method!
Number cuts repeat: 0
value: 48.333333
Number Constraints Used in Cover:678
GRASP Method!
Number cuts repeat: 0
value: 48.333333
Number Constraints Used in Cover:685
GRASP Method!
Number cuts repeat: 0
value: 48.333333
Number Constraints Used in Cover:699
GRASP Method!
Number cuts repeat: 0
value: 48.333333
Number Constraints Used in Cover:709
GRASP Method!
Number cuts repeat: 0
value: 48.333333
Number Constraints Used in Cover:722
GRASP Method!
Number cuts repeat: 0
value: 48.333333
Number Constraints Used in Cover:738
GRASP Method!
Number cuts repeat: 0
value: 48.333333
Number Constraints Used in Cover:747
GRASP Method!
Number cuts repeat: 0
value: 48.333333
Number Constraints Used in Cover:760
GRASP Method!
Number cuts repeat: 0
value: 48.333333
Number Constraints Used in Cover:768
GRASP Method!
Number cuts repeat: 0
value: 48.333333
Number Constraints Used in Cover:776
GRASP Method!
Number cuts repeat: 0
value: 48.333333
Number Constraints Used in Cover:784
GRASP Method!
Number cuts repeat: 0
value: 48.333333
Number Constraints Used in Cover:797
GRASP Method!
Number cuts repeat: 0
value: 48.333333
Number Constraints Used in Cover:811
GRASP Method!
Number cuts repeat: 0
value: 48.333333
Number Constraints Used in Cover:821
GRASP Method!
Number cuts repeat: 0
value: 48.333333
Number Constraints Used in Cover:828
GRASP Method!
Number cuts repeat: 0
value: 48.333333
Number Constraints Used in Cover:836
GRASP Method!
Number cuts repeat: 0
value: 48.333333
Number Constraints Used in Cover:845
GRASP Method!
Number cuts repeat: 0
value: 48.333333
Number Constraints Used in Cover:852
GRASP Method!
Number cuts repeat: 0
value: 48.333333
Number Constraints Used in Cover:856
GRASP Method!
Number cuts repeat: 0
value: 48.333333
Number Constraints Used in Cover:869
GRASP Method!
Number cuts repeat: 0
value: 48.333333
Number Constraints Used in Cover:872
GRASP Method!
Number cuts repeat: 0
value: 48.333333
Number Constraints Used in Cover:880
GRASP Method!
Number cuts repeat: 0
value: 48.333333
Number Constraints Used in Cover:885
GRASP Method!
Number cuts repeat: 0
value: 48.333333
Number Constraints Used in Cover:888
GRASP Method!
Number cuts repeat: 0
value: 48.333333
Number Constraints Used in Cover:895
GRASP Method!
Number cuts repeat: 0
value: 48.333333
Number Constraints Used in Cover:901
GRASP Method!
Number cuts repeat: 0
value: 48.333333
Number Constraints Used in Cover:903
GRASP Method!
Number cuts repeat: 0
value: 48.333333
Number Constraints Used in Cover:913
GRASP Method!
Number cuts repeat: 0
value: 48.333333
Number Constraints Used in Cover:918
GRASP Method!
Number cuts repeat: 0
value: 48.333333
Number Constraints Used in Cover:925
GRASP Method!
Number cuts repeat: 0
value: 48.333333
Number Constraints Used in Cover:935
GRASP Method!
Number cuts repeat: 0
value: 48.333333
Number Constraints Used in Cover:943
GRASP Method!
Number cuts repeat: 0
value: 48.333333
Number Constraints Used in Cover:944
GRASP Method!
Number cuts repeat: 0
value: 48.333333
Number Constraints Used in Cover:948
GRASP Method!
Number cuts repeat: 0
value: 48.333333
Number Cuts Final: 953
